145
1000
37
117
119
470
532
114
747
1
618
12
152
498
288
283
165
503
418
382
350
352
388
137
340
260
266
351
119
18
386
120
717
50
496
468
101
496
136
253
140
261
34
362
316
292
131
350
18
578
114
374
319
310
64
452
150
718
649
716
534
30
443
323
323
228
52
167
493
193
83
62
5
276
349
183
721
200
502
361
284
111
120
269
713
171
422
747
272
442
387
566
287
613
352
46
498
230
124
282
146
559
19
142
103
269
14
119
681
218
563
265
679
59
321
141
517
553
578
549
739
650
148
65
168
660
391
364
270
30
155
393
60
170
612
32
421
434
251
141
478
211
72
280
481
731
26
